N = 13;
H = 5;
T = 2;

avail = array3d(1..N, 1..H, 1..T, [7, 8, 10, 10, 7, 7, 9, 4, 0, 5, 0, 5, 10, 10, 5, 8, 9, 2, 3, 9, 0, 8, 9, 5, 2, 10, 3, 8, 3, 0, 10, 4, 10, 10, 7, 7, 0, 2, 6, 4, 0, 0, 0, 10, 7, 4, 5, 6, 6, 10, 0, 4, 9, 1, 1, 5, 8, 3, 8, 4, 10, 4, 6, 7, 9, 1, 7, 3, 10, 0, 10, 1, 9, 9, 6, 10, 8, 8, 9, 3, 4, 9, 7, 1, 10, 6, 6, 7, 6, 6, 3, 0, 7, 2, 9, 2, 2, 8, 3, 8, 9, 3, 7, 4, 0, 5, 3, 7, 3, 10, 5, 7, 5, 0, 7, 0, 0, 7, 0, 0, 8, 4, 2, 5, 2, 4, 0, 2, 6, 1]);

r = array2d(1..H, 1..T, [2, 1, 3, 0, 0, 4, 4, 3, 5, 1]);
